W=5;
H=1;

MAX_TIME=4;
MAX_TRACKS=4;

TARGET=(1,5);

TRAINS=[(1,1,RIGHT)];

INIT_POS=[
(1,1,STRAIGHT_RL),
(1,5,STRAIGHT_RL),
];
TUNNEL_PAIRS=[];

GATES=[];
ACTIVATIONS=[];

DSWITCHES=[];

STATIONS=[];
